
  32    1
  10

   0   0   7 2 3 4 5 8 9 10 
   1   1   6 20 19 18 17 14 11 
  10   9   3 24 14 6 
   6   7   4 19 17 16 11 
   5   9   3 19 16 7 
   2   6   4 19 17 15 12 
   7   6   6 25 24 23 22 14 13 
   1   7   4 20 19 14 13 
   8   6   5 31 29 22 21 16 
   3   4   4 25 23 20 13 
   3   4   4 24 23 22 13 
  10   6   2 23 13 
  10   9   4 31 30 29 21 
   9   3   4 31 30 29 21 
   2   9   4 31 30 29 21 
   2   6   2 25 20 
   6   5   4 30 29 27 25 
   3   6   3 30 29 21 
   4   5   2 29 22 
   1   9   2 30 24 
   8   5   3 28 27 26 
   2   4   3 28 27 26 
   9   5   3 29 27 26 
   6   8   2 27 26 
   9   4   2 28 26 
   4   9   1 32
   9   6   1 32
   8   6   1 32
  10   2   1 32
  10   6   1 32
   5   8   1 32
   0   0   0 
